; Copyright (c) 2026 The RIINA Authors. All rights reserved.
; Auto-generated from 02_FORMAL/coq/domains/FullstackSecurity.v (25 validations)
; Generated by scripts/generate-full-stack.py
;
; Translation Validation for FullstackSecurity
; Layer 9: Verifies compiler backend preserves formal semantics.
; Each assertion checks source IR ≡ target code for a proven property.

(set-logic QF_LIA)
(set-option :produce-models true)

; IR node representation
(declare-sort IRNode 0)
(declare-sort TargetNode 0)

; valid_transition: source semantics (matches Coq)
(declare-fun source_valid_transition () Bool)
(declare-fun target_valid_transition () Bool)
(assert (= source_valid_transition target_valid_transition))

; is_safe_content: source semantics (matches Coq)
(declare-fun source_is_safe_content () Bool)
(declare-fun target_is_safe_content () Bool)
(assert (= source_is_safe_content target_is_safe_content))

; template_safe: source semantics (matches Coq)
(declare-fun source_template_safe () Bool)
(declare-fun target_template_safe () Bool)
(assert (= source_template_safe target_template_safe))

; query_parameterized: source semantics (matches Coq)
(declare-fun source_query_parameterized () Bool)
(declare-fun target_query_parameterized () Bool)
(assert (= source_query_parameterized target_query_parameterized))

; csrf_valid: source semantics (matches Coq)
(declare-fun source_csrf_valid () Bool)
(declare-fun target_csrf_valid () Bool)
(assert (= source_csrf_valid target_csrf_valid))

; post_has_token: source semantics (matches Coq)
(declare-fun source_post_has_token () Bool)
(declare-fun target_post_has_token () Bool)
(assert (= source_post_has_token target_post_has_token))

; url_safe: source semantics (matches Coq)
(declare-fun source_url_safe () Bool)
(declare-fun target_url_safe () Bool)
(assert (= source_url_safe target_url_safe))

; csp_active: source semantics (matches Coq)
(declare-fun source_csp_active () Bool)
(declare-fun target_csp_active () Bool)
(assert (= source_csp_active target_csp_active))

; cookie_safe: source semantics (matches Coq)
(declare-fun source_cookie_safe () Bool)
(declare-fun target_cookie_safe () Bool)
(assert (= source_cookie_safe target_cookie_safe))

; input_validated: source semantics (matches Coq)
(declare-fun source_input_validated () Bool)
(declare-fun target_input_validated () Bool)
(assert (= source_input_validated target_input_validated))

; rate_ok: source semantics (matches Coq)
(declare-fun source_rate_ok () Bool)
(declare-fun target_rate_ok () Bool)
(assert (= source_rate_ok target_rate_ok))

; session_active: source semantics (matches Coq)
(declare-fun source_session_active () Bool)
(declare-fun target_session_active () Bool)
(assert (= source_session_active target_session_active))

; password_hashed: source semantics (matches Coq)
(declare-fun source_password_hashed () Bool)
(declare-fun target_password_hashed () Bool)
(assert (= source_password_hashed target_password_hashed))

; https_enforced: source semantics (matches Coq)
(declare-fun source_https_enforced () Bool)
(declare-fun target_https_enforced () Bool)
(assert (= source_https_enforced target_https_enforced))

; error_safe: source semantics (matches Coq)
(declare-fun source_error_safe () Bool)
(declare-fun target_error_safe () Bool)
(assert (= source_error_safe target_error_safe))

; event_logged: source semantics (matches Coq)
(declare-fun source_event_logged () Bool)
(declare-fun target_event_logged () Bool)
(assert (= source_event_logged target_event_logged))

; web_layers: source semantics (matches Coq)
(declare-fun source_web_layers () Bool)
(declare-fun target_web_layers () Bool)
(assert (= source_web_layers target_web_layers))

; web_001_escaped_safe: translation preserves property (matches Coq: Theorem)
(declare-fun source_web_001_escaped_safe () Bool)
(declare-fun target_web_001_escaped_safe () Bool)
(assert (= source_web_001_escaped_safe target_web_001_escaped_safe))

; web_002_plaintext_safe: translation preserves property (matches Coq: Theorem)
(declare-fun source_web_002_plaintext_safe () Bool)
(declare-fun target_web_002_plaintext_safe () Bool)
(assert (= source_web_002_plaintext_safe target_web_002_plaintext_safe))

; web_003_raw_unsafe: translation preserves property (matches Coq: Theorem)
(declare-fun source_web_003_raw_unsafe () Bool)
(declare-fun target_web_003_raw_unsafe () Bool)
(assert (= source_web_003_raw_unsafe target_web_003_raw_unsafe))

; web_004_template_safe: translation preserves property (matches Coq: Theorem)
(declare-fun source_web_004_template_safe () Bool)
(declare-fun target_web_004_template_safe () Bool)
(assert (= source_web_004_template_safe target_web_004_template_safe))

; web_005_param_query_safe: translation preserves property (matches Coq: Theorem)
(declare-fun source_web_005_param_query_safe () Bool)
(declare-fun target_web_005_param_query_safe () Bool)
(assert (= source_web_005_param_query_safe target_web_005_param_query_safe))

; web_006_no_concat: translation preserves property (matches Coq: Theorem)
(declare-fun source_web_006_no_concat () Bool)
(declare-fun target_web_006_no_concat () Bool)
(assert (= source_web_006_no_concat target_web_006_no_concat))

; web_007_csrf_session: translation preserves property (matches Coq: Theorem)
(declare-fun source_web_007_csrf_session () Bool)
(declare-fun target_web_007_csrf_session () Bool)
(assert (= source_web_007_csrf_session target_web_007_csrf_session))

; web_008_csrf_fresh: translation preserves property (matches Coq: Theorem)
(declare-fun source_web_008_csrf_fresh () Bool)
(declare-fun target_web_008_csrf_fresh () Bool)
(assert (= source_web_008_csrf_fresh target_web_008_csrf_fresh))

; web_009_valid_transition: translation preserves property (matches Coq: Theorem)
(declare-fun source_web_009_valid_transition () Bool)
(declare-fun target_web_009_valid_transition () Bool)
(assert (= source_web_009_valid_transition target_web_009_valid_transition))

; web_010_no_skip_mfa: translation preserves property (matches Coq: Theorem)
(declare-fun source_web_010_no_skip_mfa () Bool)
(declare-fun target_web_010_no_skip_mfa () Bool)
(assert (= source_web_010_no_skip_mfa target_web_010_no_skip_mfa))

; web_011_locked_blocked: translation preserves property (matches Coq: Theorem)
(declare-fun source_web_011_locked_blocked () Bool)
(declare-fun target_web_011_locked_blocked () Bool)
(assert (= source_web_011_locked_blocked target_web_011_locked_blocked))

; web_012_session_token: translation preserves property (matches Coq: Theorem)
(declare-fun source_web_012_session_token () Bool)
(declare-fun target_web_012_session_token () Bool)
(assert (= source_web_012_session_token target_web_012_session_token))

; web_013_post_token: translation preserves property (matches Coq: Theorem)
(declare-fun source_web_013_post_token () Bool)
(declare-fun target_web_013_post_token () Bool)
(assert (= source_web_013_post_token target_web_013_post_token))

; web_014_url_validated: translation preserves property (matches Coq: Theorem)
(declare-fun source_web_014_url_validated () Bool)
(declare-fun target_web_014_url_validated () Bool)
(assert (= source_web_014_url_validated target_web_014_url_validated))

; web_015_csp_present: translation preserves property (matches Coq: Theorem)
(declare-fun source_web_015_csp_present () Bool)
(declare-fun target_web_015_csp_present () Bool)
(assert (= source_web_015_csp_present target_web_015_csp_present))

; web_016_cookie_secure: translation preserves property (matches Coq: Theorem)
(declare-fun source_web_016_cookie_secure () Bool)
(declare-fun target_web_016_cookie_secure () Bool)
(assert (= source_web_016_cookie_secure target_web_016_cookie_secure))

; web_017_input_validated: translation preserves property (matches Coq: Theorem)
(declare-fun source_web_017_input_validated () Bool)
(declare-fun target_web_017_input_validated () Bool)
(assert (= source_web_017_input_validated target_web_017_input_validated))

; web_018_output_encoded: translation preserves property (matches Coq: Theorem)
(declare-fun source_web_018_output_encoded () Bool)
(declare-fun target_web_018_output_encoded () Bool)
(assert (= source_web_018_output_encoded target_web_018_output_encoded))

; web_019_rate_limited: translation preserves property (matches Coq: Theorem)
(declare-fun source_web_019_rate_limited () Bool)
(declare-fun target_web_019_rate_limited () Bool)
(assert (= source_web_019_rate_limited target_web_019_rate_limited))

; web_020_session_timeout: translation preserves property (matches Coq: Theorem)
(declare-fun source_web_020_session_timeout () Bool)
(declare-fun target_web_020_session_timeout () Bool)
(assert (= source_web_020_session_timeout target_web_020_session_timeout))

; web_021_password_hashed: translation preserves property (matches Coq: Theorem)
(declare-fun source_web_021_password_hashed () Bool)
(declare-fun target_web_021_password_hashed () Bool)
(assert (= source_web_021_password_hashed target_web_021_password_hashed))

; web_022_https_required: translation preserves property (matches Coq: Theorem)
(declare-fun source_web_022_https_required () Bool)
(declare-fun target_web_022_https_required () Bool)
(assert (= source_web_022_https_required target_web_022_https_required))

; web_023_error_safe: translation preserves property (matches Coq: Theorem)
(declare-fun source_web_023_error_safe () Bool)
(declare-fun target_web_023_error_safe () Bool)
(assert (= source_web_023_error_safe target_web_023_error_safe))

; web_024_logging_complete: translation preserves property (matches Coq: Theorem)
(declare-fun source_web_024_logging_complete () Bool)
(declare-fun target_web_024_logging_complete () Bool)
(assert (= source_web_024_logging_complete target_web_024_logging_complete))

; web_025_defense_in_depth: translation preserves property (matches Coq: Theorem)
(declare-fun source_web_025_defense_in_depth () Bool)
(declare-fun target_web_025_defense_in_depth () Bool)
(assert (= source_web_025_defense_in_depth target_web_025_defense_in_depth))

; Verify all translation validations are satisfiable
(check-sat)
(exit)
